Route 1: 0 98 27 13 60 23 84 1 29 0
Route 2: 0 3 52 17 11 39 58 0
Route 3: 0 34 35 15 96 91 5 47 0
Route 4: 0 7 88 37 73 94 43 53 18 9 40 66 51 0
Route 5: 0 82 4 79 99 16 41 21 36 64 30 10 32 0
Route 6: 0 78 57 59 19 81 95 62 33 45 80 56 86 0
Route 7: 0 97 65 100 44 93 83 6 85 0
Route 8: 0 61 2 14 71 31 48 70 76 0
Route 9: 0 68 20 90 74 49 42 28 46 0
Route 10: 0 50 92 24 77 54 72 0
Route 11: 0 87 75 25 12 63 22 55 67 69 89 8 38 0
Route 12: 0 26 0
